(declare-const i2  Int)
(get-qe (forall ((q23 Int) (q24 Int)                                                   )                                                                                                                                                                          (> 665                 (div i2 850)                 )     ))
